NAME : rnd50_20.tsp
TYPE : TSP
DIMENSION : 20
EDGE_WEIGHT_TYPE : EUC_2D
NODE_COORD_SECTION
0 759 142
1 280 400
2 45 367
3 525 511
4 996 957
5 491 58
6 659 446
7 949 332
8 937 822
9 426 213
10 728 245
11 823 496
12 309 422
13 941 510
14 386 121
15 188 944
16 799 967
17 173 930
18 566 451
19 475 277
